NAME: random-16-31029
TYPE: TSP
COMMENT: size=16 seed=31029
DIMENSION: 34
EDGE_WEIGHT_TYPE: EUC_2D
NODE_COORD_SECTION
+0 403 814
-0 403 814
+1 413 170
-1 803 54
+2 948 267
-2 107 733
+3 20 634
-3 897 495
+4 708 155
-4 1 870
+5 549 978
-5 636 663
+6 255 607
-6 980 432
+7 188 936
-7 651 404
+8 327 359
-8 657 309
+9 781 231
-9 541 417
+10 788 399
-10 716 119
+11 960 620
-11 706 842
+12 359 326
-12 428 956
+13 613 466
-13 263 808
+14 484 793
-14 853 474
+15 648 176
-15 981 43
+16 971 168
-16 407 527
PRECEDENCE_SECTION
+0 -0
+1 -1
+2 -2
+3 -3
+4 -4
+5 -5
+6 -6
+7 -7
+8 -8
+9 -9
+10 -10
+11 -11
+12 -12
+13 -13
+14 -14
+15 -15
+16 -16
EOF
